language Essence 1.3

letting blksize_delta be function(1 --> 2, 2 --> 3, 3 --> 2, 4 --> 2)
letting maxcars be function(1 --> 10, 2 --> 10, 3 --> 10, 4 --> 10)
letting n_cars be 288
letting n_classes be 182
letting n_options be 4
letting quantity be
        function(1 --> 11, 2 --> 1, 3 --> 5, 4 --> 83, 5 --> 9, 6 --> 3, 7 --> 1, 8 --> 1, 9 --> 1, 10 --> 1, 11 --> 1,
                 12 --> 1, 13 --> 1, 14 --> 1, 15 --> 1, 16 --> 1, 17 --> 1, 18 --> 1, 19 --> 1, 20 --> 1, 21 --> 1,
                 22 --> 1, 23 --> 1, 24 --> 1, 25 --> 1, 26 --> 1, 27 --> 1, 28 --> 1, 29 --> 1, 30 --> 1, 31 --> 1,
                 32 --> 1, 33 --> 1, 34 --> 1, 35 --> 1, 36 --> 1, 37 --> 1, 38 --> 1, 39 --> 1, 40 --> 1, 41 --> 1,
                 42 --> 1, 43 --> 1, 44 --> 1, 45 --> 1, 46 --> 1, 47 --> 1, 48 --> 1, 49 --> 1, 50 --> 1, 51 --> 1,
                 52 --> 1, 53 --> 1, 54 --> 1, 55 --> 1, 56 --> 1, 57 --> 1, 58 --> 1, 59 --> 1, 60 --> 1, 61 --> 1,
                 62 --> 1, 63 --> 1, 64 --> 1, 65 --> 1, 66 --> 1, 67 --> 1, 68 --> 1, 69 --> 1, 70 --> 1, 71 --> 1,
                 72 --> 1, 73 --> 1, 74 --> 1, 75 --> 1, 76 --> 1, 77 --> 1, 78 --> 1, 79 --> 1, 80 --> 1, 81 --> 1,
                 82 --> 1, 83 --> 1, 84 --> 1, 85 --> 1, 86 --> 1, 87 --> 1, 88 --> 1, 89 --> 1, 90 --> 1, 91 --> 1,
                 92 --> 1, 93 --> 1, 94 --> 1, 95 --> 1, 96 --> 1, 97 --> 1, 98 --> 1, 99 --> 1, 100 --> 1, 101 --> 1,
                 102 --> 1, 103 --> 1, 104 --> 1, 105 --> 1, 106 --> 1, 107 --> 1, 108 --> 1, 109 --> 1, 110 --> 1,
                 111 --> 1, 112 --> 1, 113 --> 1, 114 --> 1, 115 --> 1, 116 --> 1, 117 --> 1, 118 --> 1, 119 --> 1,
                 120 --> 1, 121 --> 1, 122 --> 1, 123 --> 1, 124 --> 1, 125 --> 1, 126 --> 1, 127 --> 1, 128 --> 1,
                 129 --> 1, 130 --> 1, 131 --> 1, 132 --> 1, 133 --> 1, 134 --> 1, 135 --> 1, 136 --> 1, 137 --> 1,
                 138 --> 1, 139 --> 1, 140 --> 1, 141 --> 1, 142 --> 1, 143 --> 1, 144 --> 1, 145 --> 1, 146 --> 1,
                 147 --> 1, 148 --> 1, 149 --> 1, 150 --> 1, 151 --> 1, 152 --> 1, 153 --> 1, 154 --> 1, 155 --> 1,
                 156 --> 1, 157 --> 1, 158 --> 1, 159 --> 1, 160 --> 1, 161 --> 1, 162 --> 1, 163 --> 1, 164 --> 1,
                 165 --> 1, 166 --> 1, 167 --> 1, 168 --> 1, 169 --> 1, 170 --> 1, 171 --> 1, 172 --> 1, 173 --> 1,
                 174 --> 1, 175 --> 1, 176 --> 1, 177 --> 1, 178 --> 1, 179 --> 1, 180 --> 1, 181 --> 1, 182 --> 1)
letting usage be
        relation((1, 2), (2, 1), (2, 3), (3, 1), (4, 1), (5, 1), (5, 3), (6, 2), (6, 3), (7, 2), (7, 3), (7, 4), (8, 1),
                 (8, 2), (8, 3), (8, 4), (9, 4), (10, 3), (11, 1), (11, 3), (12, 1), (12, 3), (12, 4), (13, 1), (14, 1),
                 (15, 4), (16, 1), (17, 3), (18, 4), (19, 3), (20, 4), (21, 3), (22, 4), (23, 1), (24, 2), (24, 3),
                 (25, 2), (26, 2), (26, 3), (27, 1), (27, 2), (27, 3), (28, 3), (29, 4), (30, 2), (30, 4), (31, 1),
                 (31, 2), (32, 1), (33, 2), (34, 4), (35, 2), (35, 3), (35, 4), (36, 1), (36, 2), (37, 1), (38, 1),
                 (38, 2), (38, 3), (39, 1), (39, 3), (40, 1), (41, 2), (41, 3), (42, 3), (43, 2), (43, 4), (44, 3),
                 (44, 4), (45, 2), (45, 4), (46, 2), (47, 3), (47, 4), (48, 1), (48, 2), (49, 3), (50, 1), (50, 2),
                 (50, 4), (51, 1), (51, 2), (51, 4), (52, 2), (53, 1), (53, 2), (54, 1), (54, 2), (55, 1), (55, 2),
                 (55, 3), (55, 4), (56, 1), (57, 2), (58, 4), (59, 1), (59, 2), (59, 3), (60, 3), (61, 2), (61, 4),
                 (62, 2), (62, 3), (63, 1), (63, 2), (64, 1), (64, 2), (64, 3), (65, 2), (66, 4), (67, 1), (67, 2),
                 (67, 3), (68, 4), (69, 2), (69, 4), (70, 1), (70, 2), (70, 3), (70, 4), (71, 3), (72, 1), (72, 4),
                 (73, 2), (73, 4), (74, 1), (74, 2), (74, 4), (75, 1), (75, 4), (76, 1), (76, 2), (76, 3), (77, 2),
                 (77, 4), (78, 1), (78, 2), (78, 4), (79, 2), (79, 4), (80, 1), (80, 4), (81, 4), (82, 1), (82, 2),
                 (82, 4), (83, 4), (84, 3), (84, 4), (85, 4), (86, 4), (87, 2), (87, 4), (88, 2), (88, 4), (89, 2),
                 (89, 4), (90, 2), (90, 3), (90, 4), (91, 4), (92, 2), (92, 4), (93, 1), (93, 4), (94, 4), (95, 4),
                 (96, 2), (96, 4), (97, 1), (97, 2), (97, 4), (98, 2), (98, 4), (99, 3), (99, 4), (100, 4), (101, 4),
                 (102, 3), (102, 4), (103, 2), (103, 3), (103, 4), (104, 1), (104, 2), (104, 4), (105, 4), (106, 2),
                 (106, 4), (107, 1), (107, 4), (108, 4), (109, 3), (109, 4), (110, 1), (110, 3), (110, 4), (111, 4),
                 (112, 4), (113, 1), (113, 3), (113, 4), (114, 2), (114, 3), (114, 4), (115, 3), (115, 4), (116, 1),
                 (116, 4), (117, 4), (118, 2), (118, 4), (119, 1), (119, 4), (120, 1), (120, 3), (120, 4), (121, 1),
                 (121, 3), (121, 4), (122, 2), (122, 4), (123, 3), (123, 4), (124, 4), (125, 3), (125, 4), (126, 3),
                 (126, 4), (127, 1), (127, 4), (128, 4), (129, 4), (130, 4), (131, 2), (131, 3), (131, 4), (132, 1),
                 (132, 4), (133, 2), (133, 4), (134, 1), (134, 2), (134, 4), (135, 2), (135, 4), (136, 4), (137, 2),
                 (137, 4), (138, 3), (138, 4), (139, 1), (139, 2), (139, 4), (140, 2), (140, 4), (141, 1), (141, 2),
                 (141, 4), (142, 1), (142, 2), (142, 4), (143, 1), (143, 2), (143, 4), (144, 1), (144, 4), (145, 2),
                 (145, 4), (146, 1), (146, 2), (146, 4), (147, 2), (147, 3), (147, 4), (148, 4), (149, 4), (150, 2),
                 (150, 4), (151, 1), (151, 2), (151, 3), (151, 4), (152, 1), (152, 2), (152, 3), (152, 4), (153, 2),
                 (153, 4), (154, 2), (154, 4), (155, 1), (155, 3), (155, 4), (156, 2), (156, 4), (157, 2), (157, 3),
                 (157, 4), (158, 2), (158, 4), (159, 1), (159, 2), (159, 3), (159, 4), (160, 2), (160, 4), (161, 1),
                 (161, 3), (161, 4), (162, 1), (162, 2), (162, 3), (162, 4), (163, 1), (163, 3), (163, 4), (164, 2),
                 (164, 4), (165, 1), (165, 2), (165, 4), (166, 3), (166, 4), (167, 4), (168, 1), (168, 4), (169, 1),
                 (169, 4), (170, 2), (170, 4), (171, 4), (172, 3), (172, 4), (173, 3), (173, 4), (174, 2), (174, 4),
                 (175, 2), (175, 3), (175, 4), (176, 3), (176, 4), (177, 2), (177, 4), (178, 2), (178, 4), (179, 1),
                 (179, 3), (179, 4), (180, 1), (180, 4), (181, 2), (181, 4), (182, 1), (182, 2), (182, 3), (182, 4))
$ Visualisation for usage
$   1   2
$   2   1
$   2   3
$   3   1
$   4   1
$   5   1
$   5   3
$   6   2
$   6   3
$   7   2
$   7   3
$   7   4
$   8   1
$   8   2
$   8   3
$   8   4
$   9   4
$  10   3
$  11   1
$  11   3
$  12   1
$  12   3
$  12   4
$  13   1
$  14   1
$  15   4
$  16   1
$  17   3
$  18   4
$  19   3
$  20   4
$  21   3
$  22   4
$  23   1
$  24   2
$  24   3
$  25   2
$  26   2
$  26   3
$  27   1
$  27   2
$  27   3
$  28   3
$  29   4
$  30   2
$  30   4
$  31   1
$  31   2
$  32   1
$  33   2
$  34   4
$  35   2
$  35   3
$  35   4
$  36   1
$  36   2
$  37   1
$  38   1
$  38   2
$  38   3
$  39   1
$  39   3
$  40   1
$  41   2
$  41   3
$  42   3
$  43   2
$  43   4
$  44   3
$  44   4
$  45   2
$  45   4
$  46   2
$  47   3
$  47   4
$  48   1
$  48   2
$  49   3
$  50   1
$  50   2
$  50   4
$  51   1
$  51   2
$  51   4
$  52   2
$  53   1
$  53   2
$  54   1
$  54   2
$  55   1
$  55   2
$  55   3
$  55   4
$  56   1
$  57   2
$  58   4
$  59   1
$  59   2
$  59   3
$  60   3
$  61   2
$  61   4
$  62   2
$  62   3
$  63   1
$  63   2
$  64   1
$  64   2
$  64   3
$  65   2
$  66   4
$  67   1
$  67   2
$  67   3
$  68   4
$  69   2
$  69   4
$  70   1
$  70   2
$  70   3
$  70   4
$  71   3
$  72   1
$  72   4
$  73   2
$  73   4
$  74   1
$  74   2
$  74   4
$  75   1
$  75   4
$  76   1
$  76   2
$  76   3
$  77   2
$  77   4
$  78   1
$  78   2
$  78   4
$  79   2
$  79   4
$  80   1
$  80   4
$  81   4
$  82   1
$  82   2
$  82   4
$  83   4
$  84   3
$  84   4
$  85   4
$  86   4
$  87   2
$  87   4
$  88   2
$  88   4
$  89   2
$  89   4
$  90   2
$  90   3
$  90   4
$  91   4
$  92   2
$  92   4
$  93   1
$  93   4
$  94   4
$  95   4
$  96   2
$  96   4
$  97   1
$  97   2
$  97   4
$  98   2
$  98   4
$  99   3
$  99   4
$ 100   4
$ 101   4
$ 102   3
$ 102   4
$ 103   2
$ 103   3
$ 103   4
$ 104   1
$ 104   2
$ 104   4
$ 105   4
$ 106   2
$ 106   4
$ 107   1
$ 107   4
$ 108   4
$ 109   3
$ 109   4
$ 110   1
$ 110   3
$ 110   4
$ 111   4
$ 112   4
$ 113   1
$ 113   3
$ 113   4
$ 114   2
$ 114   3
$ 114   4
$ 115   3
$ 115   4
$ 116   1
$ 116   4
$ 117   4
$ 118   2
$ 118   4
$ 119   1
$ 119   4
$ 120   1
$ 120   3
$ 120   4
$ 121   1
$ 121   3
$ 121   4
$ 122   2
$ 122   4
$ 123   3
$ 123   4
$ 124   4
$ 125   3
$ 125   4
$ 126   3
$ 126   4
$ 127   1
$ 127   4
$ 128   4
$ 129   4
$ 130   4
$ 131   2
$ 131   3
$ 131   4
$ 132   1
$ 132   4
$ 133   2
$ 133   4
$ 134   1
$ 134   2
$ 134   4
$ 135   2
$ 135   4
$ 136   4
$ 137   2
$ 137   4
$ 138   3
$ 138   4
$ 139   1
$ 139   2
$ 139   4
$ 140   2
$ 140   4
$ 141   1
$ 141   2
$ 141   4
$ 142   1
$ 142   2
$ 142   4
$ 143   1
$ 143   2
$ 143   4
$ 144   1
$ 144   4
$ 145   2
$ 145   4
$ 146   1
$ 146   2
$ 146   4
$ 147   2
$ 147   3
$ 147   4
$ 148   4
$ 149   4
$ 150   2
$ 150   4
$ 151   1
$ 151   2
$ 151   3
$ 151   4
$ 152   1
$ 152   2
$ 152   3
$ 152   4
$ 153   2
$ 153   4
$ 154   2
$ 154   4
$ 155   1
$ 155   3
$ 155   4
$ 156   2
$ 156   4
$ 157   2
$ 157   3
$ 157   4
$ 158   2
$ 158   4
$ 159   1
$ 159   2
$ 159   3
$ 159   4
$ 160   2
$ 160   4
$ 161   1
$ 161   3
$ 161   4
$ 162   1
$ 162   2
$ 162   3
$ 162   4
$ 163   1
$ 163   3
$ 163   4
$ 164   2
$ 164   4
$ 165   1
$ 165   2
$ 165   4
$ 166   3
$ 166   4
$ 167   4
$ 168   1
$ 168   4
$ 169   1
$ 169   4
$ 170   2
$ 170   4
$ 171   4
$ 172   3
$ 172   4
$ 173   3
$ 173   4
$ 174   2
$ 174   4
$ 175   2
$ 175   3
$ 175   4
$ 176   3
$ 176   4
$ 177   2
$ 177   4
$ 178   2
$ 178   4
$ 179   1
$ 179   3
$ 179   4
$ 180   1
$ 180   4
$ 181   2
$ 181   4
$ 182   1
$ 182   2
$ 182   3
$ 182   4

